c colouring generated by benchmark framework
p edge 23 71
v 1 1
v 2 4
v 3 1
v 4 4
v 5 3
v 6 0
v 7 0
v 8 0
v 9 0
v 10 2
v 11 4
v 12 3
v 13 2
v 14 1
v 15 4
v 16 2
v 17 1
v 18 2
v 19 1
v 20 2
v 21 2
v 22 4
v 23 0
